c Lingeling SAT Solver
c 
c Version azf 92032848c138b2f33629ad24394d60a3787a1046
c 
c Copyright (C) 2010-2014 Armin Biere JKU Linz Austria.
c All rights reserved.
c 
c released Don Mai 22 22:08:00 CEST 2014
c compiled Mon Oct  6 05:55:43 PDT 2014
c 
c gcc (Ubuntu 4.8.2-19ubuntu1) 4.8.2
c -Wall -O3 -DNDBLSCR -DNLGLOG -DNDEBUG -DNCHKSOL -DNLGLPICOSAT -DNLGLDRUPLIG
c -DNLGLYALSAT
c Linux ubuntu 3.13.0-32-generic x86_64
c 
c reading input file benchmark-sat/translations/gc-mug100_25-4.cnf
c no embedded options
c found 'p cnf 400 1364' header
c read 400 variables, 1364 clauses, 2928 literals in 0.00 seconds
c 
c  seconds         irredundant          redundant clauses agility   height
c          variables clauses conflicts large ternary binary    glue         MB
c 
c S    0.0     400     1364         0       0      0     0   0  0.0   0.0    0
c 
c  seconds         irredundant          redundant clauses agility   height
c          variables clauses conflicts large ternary binary    glue         MB
c 
s SATISFIABLE
v -1 -2 -3 4 -5 -6 7 -8 -9 10 -11 -12 13 -14 -15 -16 -17 -18 19 -20 -21 22 -23
v -24 -25 -26 27 -28 -29 -30 31 -32 -33 -34 -35 36 37 -38 -39 -40 41 -42 -43 -44
v -45 46 -47 -48 -49 -50 51 -52 -53 -54 55 -56 -57 58 -59 -60 -61 -62 -63 64 65
v -66 -67 -68 -69 70 -71 -72 -73 -74 75 -76 -77 -78 79 -80 81 -82 -83 -84 -85
v -86 -87 88 89 -90 -91 -92 -93 94 -95 -96 -97 98 -99 -100 -101 -102 103 -104
v 105 -106 -107 -108 -109 -110 -111 112 113 -114 -115 -116 -117 -118 119 -120
v -121 122 -123 -124 -125 -126 127 -128 129 -130 -131 -132 -133 134 -135 -136
v -137 -138 139 -140 141 -142 -143 -144 -145 -146 -147 148 -149 -150 151 -152
v 153 -154 -155 -156 -157 158 -159 -160 -161 162 -163 -164 -165 166 -167 -168
v 169 -170 -171 -172 -173 -174 175 -176 177 -178 -179 -180 -181 -182 -183 184
v -185 -186 187 -188 -189 -190 -191 192 193 -194 -195 -196 -197 198 -199 -200
v -201 -202 203 -204 -205 -206 -207 208 -209 210 -211 -212 -213 -214 215 -216
v 217 -218 -219 -220 -221 -222 -223 224 -225 -226 227 -228 229 -230 -231 -232
v 233 -234 -235 -236 -237 -238 -239 240 -241 242 -243 -244 -245 246 -247 -248
v -249 250 -251 -252 253 -254 -255 -256 257 -258 -259 -260 -261 -262 -263 264
v -265 266 -267 -268 -269 270 -271 -272 -273 -274 -275 276 277 -278 -279 -280
v -281 -282 -283 284 285 -286 -287 -288 -289 -290 291 -292 -293 -294 295 -296
v -297 298 -299 -300 -301 -302 -303 304 -305 306 -307 -308 -309 -310 -311 312
v 313 -314 -315 -316 317 -318 -319 -320 -321 -322 323 -324 -325 -326 -327 328
v -329 -330 -331 332 -333 -334 335 -336 337 -338 -339 -340 341 -342 -343 -344
v -345 -346 347 -348 -349 350 -351 -352 -353 -354 355 -356 357 -358 -359 -360
v -361 -362 -363 364 -365 366 -367 -368 369 -370 -371 -372 -373 -374 -375 376
v -377 -378 379 -380 -381 382 -383 -384 385 -386 -387 -388 -389 -390 391 -392
v -393 -394 -395 396 397 -398 -399 -400 0
c
c    0.010  99% simplifying
c    0.000   0% search
c ==================================
c    0.010 100% all
c 
c 0 decisions, 0.0 decisions/sec
c 0 conflicts, 0.0 conflicts/sec
c 0 propagations, 0.0 megaprops/sec
c 0.0 seconds, 0.3 MB
